# Objective value = 0
I0(4) 0
I1(4) 0
I2(4) 0
I3(4) 0
I4(3) 1
I5(4) 0
I6(5) 1
I7(5) 1
I8(4) 0
I9(4) 1
I10(4) 0
I11(4) 0
I12(4) 0
I13(4) 0
I14(4) 0
I15(4) 0
I16(4) 0
I17(4) 0
I18(4) 0
I19(4) 0
I20(4) 0
I21(4) 0
I22(4) 0
I23(4) 0
I24(4) 0
I25(4) 0
I26(4) 0
I27(4) 0
I28(4) 0
I29(4) 0
I30(4) 0
I31(4) 0
I32(4) 0
I33(4) 0
I34(4) 0
I35(4) 0
I36(4) 0
I37(4) 0
I38(4) 0
I39(4) 0
I40(4) 0
I41(4) 0
I42(4) 0
I43(4) 0
I44(4) 0
I45(4) 0
I46(4) 0
I47(5) 1
I48(4) 0
I49(4) 0
I50(4) 0
I51(4) 0
I52(4) 0
I53(4) 0
I54(4) 0
I55(4) 0
I56(4) 0
I57(4) 0
I58(4) 0
I59(4) 0
I60(4) 0
I61(4) 0
I62(3) 1
I63(4) 0
I64(4) 0
I65(4) 0
I66(4) 0
I67(3) 1
I68(4) 0
I69(4) 0
I70(5) 1
I71(4) 1
I72(4) 0
I73(4) 1
I74(4) 0
I75(4) 0
I76(4) 0
I77(4) 0
I78(4) 0
I79(4) 0
I80(4) 0
I81(4) 0
I82(4) 0
I83(4) 0
I84(4) 0
I85(4) 0
I86(4) 0
I87(4) 0
I88(4) 0
I89(4) 0
I90(4) 0
I91(4) 0
I92(4) 0
I93(4) 0
I94(4) 0
I95(4) 0
I96(4) 0
I97(4) 0
I98(4) 0
I99(4) 0
I100(4) 0
I101(4) 0
I102(4) 0
I103(4) 0
I104(4) 0
I105(4) 0
I106(4) 0
I107(4) 0
I108(4) 0
I109(4) 0
I110(4) 0
I111(5) 1
I112(4) 0
I113(4) 0
I114(4) 0
I115(4) 0
I116(4) 0
I117(4) 0
I118(4) 0
I119(4) 0
I120(4) 0
I121(4) 0
I122(4) 0
I123(4) 0
I124(4) 0
I125(3) 1
I126(4) 0
I127(5) 1
I128(4) 0
I129(4) 1
I130(3) 1
I131(4) 1
I132(4) 0
I133(4) 0
I134(4) 0
I135(4) 0
I136(4) 0
I137(4) 0
I138(4) 0
I139(4) 0
I140(4) 0
I141(4) 0
I142(4) 0
I143(4) 0
I144(4) 0
I145(4) 0
I146(4) 0
I147(4) 0
I148(4) 0
I149(4) 0
I150(4) 0
I151(4) 0
I152(4) 0
I153(4) 0
I154(4) 0
I155(4) 0
I156(4) 0
I157(4) 0
I158(4) 0
I159(4) 0
I160(4) 0
I161(4) 0
I162(4) 0
I163(4) 0
I164(4) 0
I165(4) 0
I166(4) 0
I167(4) 0
I168(4) 0
I169(4) 0
I170(4) 0
I171(4) 0
I172(4) 0
I173(4) 0
I174(4) 0
I175(5) 1
I176(4) 0
I177(4) 0
I178(4) 0
I179(4) 0
I180(4) 0
I181(4) 0
I182(4) 0
I183(4) 0
I184(4) 0
I185(4) 0
I186(4) 0
I187(4) 0
I188(3) 1
I189(4) 0
I190(4) 0
I191(4) 0
I192(4) 0
I193(3) 1
I194(4) 0
I195(4) 0
I196(4) 0
I197(4) 0
I198(4) 0
I199(4) 0
I200(4) 0
I201(4) 0
I202(5) 1
I203(4) 0
I204(4) 1
I205(5) 1
I206(4) 1
I207(4) 0
I208(4) 1
I209(5) 1
I210(4) 1
I211(4) 0
I212(4) 1
I213(5) 1
I214(4) 1
I215(4) 0
I216(4) 1
I217(5) 1
I218(4) 1
I219(4) 0
I220(4) 1
I221(5) 1
I222(4) 1
I223(4) 0
I224(4) 1
I225(4) 1
I226(4) 0
I227(4) 0
I228(4) 0
I229(4) 0
I230(4) 0
I231(4) 0
I232(4) 0
I233(4) 0
I234(4) 0
I235(4) 0
I236(4) 0
I237(4) 0
I238(4) 0
I239(5) 1
I240(4) 0
I241(4) 0
I242(4) 0
I243(4) 0
I244(4) 0
I245(4) 0
I246(4) 0
I247(4) 0
I248(4) 0
I249(4) 0
I250(4) 0
I251(3) 1
I252(4) 0
I253(4) 0
I254(4) 0
I255(4) 0
I256(3) 1
I257(4) 0
I258(4) 0
I259(4) 0
I260(4) 0
I261(4) 0
I262(4) 0
I263(4) 0
I264(4) 0
I265(4) 0
I266(4) 0
I267(4) 0
I268(4) 0
I269(4) 0
I270(4) 0
I271(4) 0
I272(4) 0
I273(4) 0
I274(4) 0
I275(4) 0
I276(4) 0
I277(4) 0
I278(4) 0
I279(4) 0
I280(4) 0
I281(4) 0
I282(4) 0
I283(4) 0
I284(4) 0
I285(4) 0
I286(4) 0
I287(4) 0
I288(4) 0
I289(4) 0
I290(4) 0
I291(5) 1
I292(4) 0
I293(4) 1
I294(4) 1
I295(4) 0
I296(4) 0
I297(4) 0
I298(4) 0
I299(4) 0
I300(4) 0
I301(4) 0
I302(4) 0
I303(5) 1
I304(4) 0
I305(4) 0
I306(4) 0
I307(4) 0
I308(4) 0
I309(4) 0
I310(4) 0
I311(4) 0
I312(4) 0
I313(4) 0
I314(3) 1
I315(5) 1
I316(5) 1
I317(4) 1
I318(4) 0
I319(3) 1
I320(4) 0
I321(4) 0
I322(4) 0
I323(4) 0
I324(4) 0
I325(4) 0
I326(4) 0
I327(4) 0
I328(4) 0
I329(4) 0
I330(4) 0
I331(4) 0
I332(4) 0
I333(4) 0
I334(4) 0
I335(4) 0
I336(4) 0
I337(4) 0
I338(4) 0
I339(4) 0
I340(4) 0
I341(4) 0
I342(4) 0
I343(4) 0
I344(4) 0
I345(4) 0
I346(4) 0
I347(4) 0
I348(4) 0
I349(4) 0
I350(4) 0
I351(4) 0
I352(4) 0
I353(4) 0
I354(4) 0
I355(4) 0
I356(4) 0
I357(4) 0
I358(4) 0
I359(4) 0
I360(4) 0
I361(4) 0
I362(4) 0
I363(4) 0
I364(4) 0
I365(4) 0
I366(4) 0
I367(5) 1
I368(4) 0
I369(4) 0
I370(4) 0
I371(4) 0
I372(4) 0
I373(4) 0
I374(4) 0
I375(4) 0
I376(4) 0
I377(3) 1
I378(4) 0
I379(4) 0
I380(4) 0
I381(4) 0
I382(3) 1
I383(4) 0
I384(4) 0
I385(4) 0
I386(4) 0
I387(4) 0
I388(4) 0
I389(4) 0
I390(4) 0
I391(4) 0
I392(4) 0
I393(4) 0
I394(4) 0
I395(4) 0
I396(4) 0
I397(4) 0
I398(4) 0
I399(4) 0
I400(4) 0
I401(4) 0
I402(4) 0
I403(4) 0
I404(4) 0
I405(4) 0
I406(4) 0
I407(4) 0
I408(4) 0
I409(4) 0
I410(4) 0
I411(4) 0
I412(4) 0
I413(4) 0
I414(4) 0
I415(4) 0
I416(4) 0
I417(4) 0
I418(4) 0
I419(4) 0
I420(4) 0
I421(4) 0
I422(4) 0
I423(4) 0
I424(4) 0
I425(4) 0
I426(4) 0
I427(4) 0
I428(4) 0
I429(4) 0
I430(4) 0
I431(5) 1
I432(4) 0
I433(4) 0
I434(4) 0
I435(4) 0
I436(4) 0
I437(4) 0
I438(4) 0
I439(4) 0
I440(3) 1
I441(4) 0
I442(4) 0
I443(4) 0
I444(4) 0
I445(3) 1
I446(4) 0
I447(4) 0
I448(4) 0
I449(4) 0
I450(4) 0
I451(4) 0
I452(5) 1
I453(4) 0
I454(4) 0
I455(4) 0
I456(4) 0
I457(4) 0
I458(4) 0
I459(4) 0
I460(4) 0
I461(4) 0
I462(4) 0
I463(4) 0
I464(4) 0
I465(4) 0
I466(4) 0
I467(4) 0
I468(4) 0
I469(4) 0
I470(4) 0
I471(4) 0
I472(4) 0
I473(4) 0
I474(4) 0
I475(4) 0
I476(4) 0
I477(4) 0
I478(4) 0
I479(4) 0
I480(4) 0
I481(4) 0
I482(4) 0
I483(4) 0
I484(4) 0
I485(4) 0
I486(4) 0
I487(4) 0
I488(4) 0
I489(4) 0
I490(4) 0
I491(4) 0
I492(4) 0
I493(4) 0
I494(4) 0
I495(5) 1
I496(4) 0
I497(4) 0
I498(4) 0
I499(4) 0
I500(4) 0
I501(4) 0
I502(4) 0
I503(3) 1
I504(4) 0
I505(4) 0
I506(4) 0
I507(4) 0
I508(3) 1
I509(4) 0
I510(4) 0
I511(4) 0
I512(4) 0
I513(4) 0
I514(4) 0
I515(4) 0
I516(5) 1
I517(5) 1
I518(4) 1
I519(4) 0
I520(5) 1
I521(4) 0
I522(4) 1
I523(4) 0
I524(5) 1
I525(4) 0
I526(4) 1
I527(4) 0
I528(5) 1
I529(4) 0
I530(4) 1
I531(4) 0
I532(5) 1
I533(4) 0
I534(4) 1
I535(4) 0
I536(5) 1
I537(4) 0
I538(4) 1
I539(4) 0
I540(4) 0
I541(4) 0
I542(4) 0
I543(4) 0
I544(4) 0
I545(4) 0
I546(4) 0
I547(4) 0
I548(4) 0
I549(4) 0
I550(4) 0
I551(4) 0
I552(4) 0
I553(4) 0
I554(4) 0
I555(4) 0
I556(4) 0
I557(4) 0
I558(4) 0
I559(5) 1
I560(4) 0
I561(4) 0
I562(4) 0
I563(4) 0
I564(4) 0
I565(4) 0
I566(3) 1
I567(4) 0
I568(4) 0
I569(4) 0
I570(4) 0
I571(3) 1
I572(4) 0
I573(4) 0
I574(4) 0
I575(4) 0
I576(4) 0
I577(4) 0
I578(4) 0
I579(4) 0
I580(4) 0
I581(4) 0
I582(4) 0
I583(4) 0
I584(4) 0
I585(4) 0
I586(4) 0
I587(4) 0
I588(4) 0
I589(4) 0
I590(4) 0
I591(4) 0
I592(4) 0
I593(4) 0
I594(4) 0
I595(4) 0
I596(4) 0
I597(4) 0
I598(4) 0
I599(4) 0
I600(4) 0
I601(4) 0
I602(4) 0
I603(4) 0
I604(5) 1
I605(4) 0
I606(4) 0
I607(4) 0
I608(4) 0
I609(4) 0
I610(4) 0
I611(4) 0
I612(4) 0
I613(4) 0
I614(4) 0
I615(4) 0
I616(4) 0
I617(4) 0
I618(4) 0
I619(4) 0
I620(4) 0
I621(4) 0
I622(4) 0
I623(5) 1
I624(4) 0
I625(4) 0
I626(4) 0
I627(4) 0
I628(4) 0
I629(3) 1
I630(4) 0
I631(4) 0
I632(4) 0
I633(4) 0
I634(3) 1
I635(4) 0
I636(4) 0
I637(4) 0
I638(4) 0
I639(4) 0
I640(4) 0
I641(4) 0
I642(4) 0
I643(4) 0
I644(4) 0
I645(4) 0
I646(4) 0
I647(4) 0
I648(4) 0
I649(4) 0
I650(4) 0
I651(4) 0
I652(4) 0
I653(4) 0
I654(4) 0
I655(4) 0
I656(4) 0
I657(4) 0
I658(4) 0
I659(4) 0
I660(4) 0
I661(4) 0
I662(4) 0
I663(4) 0
I664(4) 0
I665(4) 0
I666(4) 0
I667(4) 0
I668(5) 1
I669(4) 0
I670(4) 0
I671(4) 0
I672(4) 0
I673(4) 0
I674(4) 0
I675(4) 0
I676(4) 0
I677(4) 0
I678(4) 0
I679(4) 0
I680(4) 0
I681(4) 0
I682(4) 0
I683(4) 0
I684(4) 0
I685(4) 0
I686(4) 0
I687(5) 1
I688(4) 0
I689(4) 0
I690(4) 0
I691(4) 0
I692(3) 1
I693(4) 0
I694(4) 0
I695(4) 0
I696(4) 0
I697(3) 1
I698(4) 0
I699(4) 0
I700(4) 0
I701(4) 0
I702(4) 0
I703(4) 0
I704(4) 0
I705(4) 0
I706(4) 0
I707(4) 0
I708(4) 0
I709(4) 0
I710(4) 0
I711(4) 0
I712(4) 0
I713(4) 0
I714(4) 0
I715(4) 0
I716(4) 0
I717(4) 0
I718(4) 0
I719(4) 0
I720(4) 0
I721(4) 0
I722(4) 0
I723(4) 0
I724(4) 0
I725(4) 0
I726(4) 0
I727(4) 0
I728(4) 0
I729(4) 0
I730(4) 0
I731(4) 0
I732(4) 0
I733(4) 0
I734(4) 0
I735(4) 0
I736(5) 1
I737(4) 0
I738(4) 0
I739(4) 0
I740(4) 0
I741(4) 0
I742(4) 0
I743(4) 0
I744(4) 0
I745(4) 0
I746(4) 0
I747(4) 0
I748(4) 0
I749(4) 0
I750(4) 0
I751(5) 1
I752(4) 0
I753(4) 0
I754(4) 0
I755(3) 1
I756(4) 0
I757(4) 0
I758(4) 0
I759(4) 0
I760(3) 1
I761(4) 0
I762(4) 0
I763(4) 0
I764(4) 0
I765(4) 0
I766(4) 0
I767(4) 0
I768(4) 0
I769(4) 0
I770(4) 0
I771(4) 0
I772(4) 0
I773(4) 0
I774(4) 0
I775(4) 0
I776(4) 0
I777(4) 0
I778(4) 0
I779(4) 0
I780(4) 0
I781(4) 0
I782(4) 0
I783(4) 0
I784(4) 0
I785(4) 0
I786(4) 0
I787(4) 0
I788(4) 0
I789(4) 0
I790(4) 0
I791(4) 0
I792(4) 0
I793(4) 0
I794(4) 0
I795(5) 1
I796(4) 1
I797(4) 0
I798(4) 0
I799(4) 0
I800(5) 1
I801(4) 0
I802(4) 0
I803(4) 0
I804(4) 0
I805(4) 0
I806(4) 0
I807(4) 0
I808(4) 0
I809(4) 0
I810(4) 0
I811(4) 0
I812(4) 0
I813(4) 0
I814(4) 0
I815(5) 1
I816(4) 0
I817(4) 0
I818(3) 1
I819(4) 0
I820(4) 0
I821(4) 0
I822(4) 0
I823(3) 1
I824(4) 0
I825(4) 0
I826(4) 0
I827(4) 0
I828(4) 0
I829(4) 0
I830(4) 0
I831(4) 0
I832(4) 0
I833(4) 0
I834(4) 0
I835(4) 0
I836(4) 0
I837(4) 0
I838(4) 0
I839(4) 0
I840(4) 0
I841(4) 0
I842(4) 0
I843(4) 0
I844(4) 0
I845(4) 0
I846(4) 0
I847(4) 0
I848(4) 0
I849(4) 0
I850(4) 0
I851(4) 0
I852(4) 0
I853(4) 0
I854(4) 0
I855(4) 0
I856(4) 0
I857(4) 0
I858(4) 0
I859(4) 0
I860(4) 0
I861(4) 0
I862(4) 0
I863(4) 0
I864(5) 1
I865(4) 0
I866(4) 0
I867(4) 0
I868(4) 0
I869(4) 0
I870(4) 0
I871(4) 0
I872(4) 0
I873(4) 0
I874(4) 0
I875(4) 0
I876(4) 0
I877(4) 0
I878(4) 0
I879(5) 1
I880(4) 0
I881(3) 1
I882(4) 0
I883(4) 0
I884(4) 0
I885(4) 0
I886(3) 1
I887(4) 0
I888(4) 0
I889(4) 0
I890(4) 0
I891(4) 0
I892(4) 0
I893(4) 0
I894(4) 0
I895(4) 0
I896(4) 0
I897(4) 0
I898(4) 0
I899(4) 0
I900(4) 0
I901(4) 0
I902(4) 0
I903(4) 0
I904(4) 0
I905(4) 0
I906(4) 0
I907(4) 0
I908(4) 0
I909(4) 0
I910(4) 0
I911(4) 0
I912(4) 0
I913(4) 0
I914(4) 0
I915(4) 0
I916(4) 0
I917(4) 0
I918(4) 0
I919(4) 0
I920(4) 0
I921(4) 0
I922(4) 0
I923(4) 0
I924(4) 0
I925(4) 0
I926(4) 0
I927(4) 0
I928(5) 1
I929(4) 0
I930(4) 0
I931(4) 0
I932(4) 0
I933(4) 0
I934(4) 0
I935(4) 0
I936(4) 0
I937(4) 0
I938(4) 0
I939(4) 0
I940(4) 0
I941(4) 0
I942(4) 0
I943(5) 1
I944(3) 1
I945(4) 0
I946(4) 0
I947(4) 0
I948(4) 0
I949(0) 0
I950(4) 0
I951(4) 200
I952(4) 200
I953(4) 0
I954(4) 200
I955(4) 0
I956(4) 0
I957(4) 0
I958(4) 0
I959(4) 0
I960(4) 0
I961(4) 0
I962(4) 0
I963(4) 0
I964(4) 0
I965(4) 0
I966(4) 0
I967(4) 0
I968(4) 0
I969(4) 0
I970(4) 0
I971(4) 0
I972(4) 0
I973(4) 0
I974(4) 0
I975(4) 0
I976(4) 0
I977(4) 0
I978(4) 0
I979(4) 0
I980(4) 0
I981(4) 0
I982(4) 0
I983(4) 0
I984(4) 0
I985(4) 0
I986(4) 0
I987(4) 0
I988(4) 0
I989(4) 0
I990(4) 0
I991(4) 0
I992(4) 200
I993(4) 0
I994(4) 0
I995(4) 0
I996(4) 0
I997(4) 0
I998(4) 0
I999(4) 0
I1000(4) 0
I1001(4) 0
I1002(4) 0
I1003(4) 0
I1004(4) 0
I1005(4) 0
I1006(4) 0
I1007(0) 0
I1008(4) 0
I1009(4) 0
I1010(4) 0
I1011(4) 0
I1012(0) 0
I1013(4) 0
I1014(4) 0
I1015(4) 124
I1016(4) 124
I1017(4) 0
I1018(4) 124
I1019(4) 0
I1020(4) 0
I1021(4) 0
I1022(4) 0
I1023(4) 0
I1024(4) 0
I1025(4) 0
I1026(4) 0
I1027(4) 0
I1028(4) 0
I1029(4) 0
I1030(4) 0
I1031(4) 0
I1032(4) 0
I1033(4) 0
I1034(4) 0
I1035(4) 0
I1036(4) 0
I1037(4) 0
I1038(4) 0
I1039(4) 0
I1040(4) 0
I1041(4) 0
I1042(4) 0
I1043(4) 0
I1044(4) 0
I1045(4) 0
I1046(4) 0
I1047(4) 0
I1048(4) 0
I1049(4) 0
I1050(4) 0
I1051(4) 0
I1052(4) 0
I1053(4) 0
I1054(4) 0
I1055(4) 0
I1056(4) 124
I1057(4) 0
I1058(4) 0
I1059(4) 0
I1060(4) 0
I1061(4) 0
I1062(4) 0
I1063(4) 0
I1064(4) 0
I1065(4) 0
I1066(4) 0
I1067(4) 0
I1068(4) 0
I1069(4) 0
I1070(0) 0
I1071(4) 0
I1072(4) 581
I1073(4) 0
I1074(4) 581
I1075(0) 0
I1076(4) 581
I1077(4) 0
I1078(4) 0
I1079(4) 0
I1080(4) 0
I1081(4) 0
I1082(4) 0
I1083(4) 0
I1084(4) 0
I1085(4) 0
I1086(4) 0
I1087(4) 0
I1088(4) 0
I1089(4) 0
I1090(4) 0
I1091(4) 0
I1092(4) 0
I1093(4) 0
I1094(4) 0
I1095(4) 0
I1096(4) 0
I1097(4) 0
I1098(4) 0
I1099(4) 0
I1100(4) 0
I1101(4) 0
I1102(4) 0
I1103(4) 0
I1104(4) 0
I1105(4) 0
I1106(4) 0
I1107(4) 0
I1108(4) 0
I1109(4) 0
I1110(4) 0
I1111(4) 0
I1112(4) 0
I1113(4) 0
I1114(4) 0
I1115(4) 0
I1116(4) 0
I1117(4) 0
I1118(4) 0
I1119(4) 0
I1120(4) 581
I1121(4) 0
I1122(4) 0
I1123(4) 0
I1124(4) 0
I1125(4) 0
I1126(4) 0
I1127(4) 0
I1128(4) 0
I1129(4) 0
I1130(4) 0
I1131(4) 0
I1132(4) 0
I1133(0) 0
I1134(4) 0
I1135(4) 0
I1136(4) 0
I1137(4) 0
I1138(0) 0
I1139(4) 0
I1140(4) 0
I1141(4) 0
I1142(4) 0
I1143(4) 0
I1144(4) 0
I1145(4) 0
I1146(4) 0
I1147(4) 765
I1148(4) 0
I1149(4) 765
I1150(4) 765
I1151(4) 765
I1152(4) 0
I1153(4) 765
I1154(4) 765
I1155(4) 765
I1156(4) 0
I1157(4) 765
I1158(4) 765
I1159(4) 765
I1160(4) 0
I1161(4) 765
I1162(4) 765
I1163(4) 765
I1164(4) 0
I1165(4) 765
I1166(4) 765
I1167(4) 765
I1168(4) 0
I1169(4) 765
I1170(4) 765
I1171(4) 0
I1172(4) 0
I1173(4) 0
I1174(4) 0
I1175(4) 0
I1176(4) 0
I1177(4) 0
I1178(4) 0
I1179(4) 0
I1180(4) 0
I1181(4) 0
I1182(4) 0
I1183(4) 0
I1184(4) 765
I1185(4) 0
I1186(4) 0
I1187(4) 0
I1188(4) 0
I1189(4) 0
I1190(4) 0
I1191(4) 0
I1192(4) 0
I1193(4) 0
I1194(4) 0
I1195(4) 0
I1196(0) 0
I1197(4) 0
I1198(4) 0
I1199(4) 0
I1200(4) 0
I1201(0) 0
I1202(4) 0
I1203(4) 0
I1204(4) 0
I1205(4) 0
I1206(4) 0
I1207(4) 0
I1208(4) 0
I1209(4) 0
I1210(4) 0
I1211(4) 0
I1212(4) 0
I1213(4) 0
I1214(4) 0
I1215(4) 0
I1216(4) 0
I1217(4) 0
I1218(4) 0
I1219(4) 0
I1220(4) 0
I1221(4) 0
I1222(4) 0
I1223(4) 0
I1224(4) 0
I1225(4) 0
I1226(4) 0
I1227(4) 0
I1228(4) 0
I1229(4) 0
I1230(4) 0
I1231(4) 0
I1232(4) 0
I1233(4) 0
I1234(4) 0
I1235(4) 0
I1236(4) 7657
I1237(4) 0
I1238(4) 7657
I1239(4) 7657
I1240(4) 0
I1241(4) 0
I1242(4) 0
I1243(4) 0
I1244(4) 0
I1245(4) 0
I1246(4) 0
I1247(4) 0
I1248(4) 7657
I1249(4) 0
I1250(4) 0
I1251(4) 0
I1252(4) 0
I1253(4) 0
I1254(4) 0
I1255(4) 0
I1256(4) 0
I1257(4) 0
I1258(4) 0
I1259(0) 0
I1260(4) 1
I1261(4) 1
I1262(4) 1
I1263(4) 0
I1264(0) 0
I1265(4) 0
I1266(4) 0
I1267(4) 0
I1268(4) 0
I1269(4) 0
I1270(4) 0
I1271(4) 0
I1272(4) 0
I1273(4) 0
I1274(4) 0
I1275(4) 0
I1276(4) 0
I1277(4) 0
I1278(4) 0
I1279(4) 0
I1280(4) 0
I1281(4) 0
I1282(4) 0
I1283(4) 0
I1284(4) 0
I1285(4) 0
I1286(4) 0
I1287(4) 0
I1288(4) 0
I1289(4) 0
I1290(4) 0
I1291(4) 0
I1292(4) 0
I1293(4) 0
I1294(4) 0
I1295(4) 0
I1296(4) 0
I1297(4) 0
I1298(4) 0
I1299(4) 0
I1300(4) 0
I1301(4) 0
I1302(4) 0
I1303(4) 0
I1304(4) 0
I1305(4) 0
I1306(4) 0
I1307(4) 0
I1308(4) 0
I1309(4) 0
I1310(4) 0
I1311(4) 0
I1312(4) 1
I1313(4) 0
I1314(4) 0
I1315(4) 0
I1316(4) 0
I1317(4) 0
I1318(4) 0
I1319(4) 0
I1320(4) 0
I1321(4) 0
I1322(0) 0
I1323(4) 0
I1324(4) 0
I1325(4) 0
I1326(4) 0
I1327(0) 0
I1328(4) 0
I1329(4) 0
I1330(4) 0
I1331(4) 0
I1332(4) 0
I1333(4) 0
I1334(4) 0
I1335(4) 0
I1336(4) 0
I1337(4) 0
I1338(4) 0
I1339(4) 0
I1340(4) 0
I1341(4) 0
I1342(4) 0
I1343(4) 0
I1344(4) 0
I1345(4) 0
I1346(4) 0
I1347(4) 0
I1348(4) 0
I1349(4) 0
I1350(4) 0
I1351(4) 0
I1352(4) 0
I1353(4) 0
I1354(4) 0
I1355(4) 0
I1356(4) 0
I1357(4) 0
I1358(4) 0
I1359(4) 0
I1360(4) 0
I1361(4) 0
I1362(4) 0
I1363(4) 0
I1364(4) 0
I1365(4) 0
I1366(4) 0
I1367(4) 0
I1368(4) 0
I1369(4) 0
I1370(4) 0
I1371(4) 0
I1372(4) 0
I1373(4) 0
I1374(4) 0
I1375(4) 0
I1376(4) 1
I1377(4) 0
I1378(4) 0
I1379(4) 0
I1380(4) 0
I1381(4) 0
I1382(4) 0
I1383(4) 0
I1384(4) 0
I1385(0) 0
I1386(4) 0
I1387(4) 0
I1388(4) 0
I1389(4) 0
I1390(0) 0
I1391(4) 0
I1392(4) 0
I1393(4) 0
I1394(4) 0
I1395(4) 0
I1396(4) 0
I1397(4) 1
I1398(4) 0
I1399(4) 0
I1400(4) 0
I1401(4) 0
I1402(4) 0
I1403(4) 0
I1404(4) 0
I1405(4) 0
I1406(4) 0
I1407(4) 0
I1408(4) 0
I1409(4) 0
I1410(4) 0
I1411(4) 0
I1412(4) 0
I1413(4) 0
I1414(4) 0
I1415(4) 0
I1416(4) 0
I1417(4) 0
I1418(4) 0
I1419(4) 0
I1420(4) 0
I1421(4) 0
I1422(4) 0
I1423(4) 0
I1424(4) 0
I1425(4) 0
I1426(4) 0
I1427(4) 0
I1428(4) 0
I1429(4) 0
I1430(4) 0
I1431(4) 0
I1432(4) 0
I1433(4) 0
I1434(4) 0
I1435(4) 0
I1436(4) 0
I1437(4) 0
I1438(4) 0
I1439(4) 0
I1440(4) 1
I1441(4) 0
I1442(4) 0
I1443(4) 0
I1444(4) 0
I1445(4) 0
I1446(4) 0
I1447(4) 0
I1448(0) 0
I1449(4) 0
I1450(4) 0
I1451(4) 0
I1452(4) 0
I1453(0) 0
I1454(4) 0
I1455(4) 0
I1456(4) 0
I1457(4) 0
I1458(4) 0
I1459(4) 0
I1460(4) 0
I1461(4) 1840
I1462(4) 1840
I1463(4) 1840
I1464(4) 0
I1465(4) 1840
I1466(4) 0
I1467(4) 1840
I1468(4) 0
I1469(4) 1840
I1470(4) 0
I1471(4) 1840
I1472(4) 0
I1473(4) 1840
I1474(4) 0
I1475(4) 1840
I1476(4) 0
I1477(4) 1840
I1478(4) 0
I1479(4) 1840
I1480(4) 0
I1481(4) 1840
I1482(4) 0
I1483(4) 1840
I1484(4) 0
I1485(4) 0
I1486(4) 0
I1487(4) 0
I1488(4) 0
I1489(4) 0
I1490(4) 0
I1491(4) 0
I1492(4) 0
I1493(4) 0
I1494(4) 0
I1495(4) 0
I1496(4) 0
I1497(4) 0
I1498(4) 0
I1499(4) 0
I1500(4) 0
I1501(4) 0
I1502(4) 0
I1503(4) 0
I1504(4) 1840
I1505(4) 0
I1506(4) 0
I1507(4) 0
I1508(4) 0
I1509(4) 0
I1510(4) 0
I1511(0) 0
I1512(4) 0
I1513(4) 0
I1514(4) 0
I1515(4) 0
I1516(0) 0
I1517(4) 0
I1518(4) 0
I1519(4) 0
I1520(4) 0
I1521(4) 0
I1522(4) 0
I1523(4) 0
I1524(4) 0
I1525(4) 0
I1526(4) 0
I1527(4) 0
I1528(4) 0
I1529(4) 0
I1530(4) 0
I1531(4) 0
I1532(4) 0
I1533(4) 0
I1534(4) 0
I1535(4) 0
I1536(4) 0
I1537(4) 0
I1538(4) 0
I1539(4) 0
I1540(4) 0
I1541(4) 0
I1542(4) 0
I1543(4) 0
I1544(4) 0
I1545(4) 0
I1546(4) 0
I1547(4) 0
I1548(4) 0
I1549(4) 1
I1550(4) 0
I1551(4) 0
I1552(4) 0
I1553(4) 0
I1554(4) 0
I1555(4) 0
I1556(4) 0
I1557(4) 0
I1558(4) 0
I1559(4) 0
I1560(4) 0
I1561(4) 0
I1562(4) 0
I1563(4) 0
I1564(4) 0
I1565(4) 0
I1566(4) 0
I1567(4) 0
I1568(4) 1
I1569(4) 0
I1570(4) 0
I1571(4) 0
I1572(4) 0
I1573(4) 0
I1574(0) 0
I1575(4) 0
I1576(4) 0
I1577(4) 0
I1578(4) 0
I1579(0) 0
I1580(4) 0
I1581(4) 0
I1582(4) 0
I1583(4) 0
I1584(4) 0
I1585(4) 0
I1586(4) 0
I1587(4) 0
I1588(4) 0
I1589(4) 0
I1590(4) 0
I1591(4) 0
I1592(4) 0
I1593(4) 0
I1594(4) 0
I1595(4) 0
I1596(4) 0
I1597(4) 0
I1598(4) 0
I1599(4) 0
I1600(4) 0
I1601(4) 0
I1602(4) 0
I1603(4) 0
I1604(4) 0
I1605(4) 0
I1606(4) 0
I1607(4) 0
I1608(4) 0
I1609(4) 0
I1610(4) 0
I1611(4) 0
I1612(4) 0
I1613(4) 1
I1614(4) 0
I1615(4) 0
I1616(4) 0
I1617(4) 0
I1618(4) 0
I1619(4) 0
I1620(4) 0
I1621(4) 0
I1622(4) 0
I1623(4) 0
I1624(4) 0
I1625(4) 0
I1626(4) 0
I1627(4) 0
I1628(4) 0
I1629(4) 0
I1630(4) 0
I1631(4) 0
I1632(4) 1
I1633(4) 0
I1634(4) 0
I1635(4) 0
I1636(4) 0
I1637(0) 0
I1638(4) 0
I1639(4) 0
I1640(4) 0
I1641(4) 0
I1642(0) 0
I1643(4) 0
I1644(4) 0
I1645(4) 0
I1646(4) 0
I1647(4) 0
I1648(4) 0
I1649(4) 0
I1650(4) 0
I1651(4) 0
I1652(4) 0
I1653(4) 0
I1654(4) 0
I1655(4) 0
I1656(4) 0
I1657(4) 0
I1658(4) 0
I1659(4) 0
I1660(4) 0
I1661(4) 0
I1662(4) 0
I1663(4) 0
I1664(4) 0
I1665(4) 0
I1666(4) 0
I1667(4) 0
I1668(4) 0
I1669(4) 0
I1670(4) 0
I1671(4) 0
I1672(4) 0
I1673(4) 0
I1674(4) 0
I1675(4) 0
I1676(4) 0
I1677(4) 0
I1678(4) 0
I1679(4) 0
I1680(4) 0
I1681(4) 823
I1682(4) 0
I1683(4) 0
I1684(4) 0
I1685(4) 0
I1686(4) 0
I1687(4) 0
I1688(4) 0
I1689(4) 0
I1690(4) 0
I1691(4) 0
I1692(4) 0
I1693(4) 0
I1694(4) 0
I1695(4) 0
I1696(4) 823
I1697(4) 0
I1698(4) 0
I1699(4) 0
I1700(0) 0
I1701(4) 0
I1702(4) 0
I1703(4) 0
I1704(4) 0
I1705(0) 0
I1706(4) 0
I1707(4) 0
I1708(4) 0
I1709(4) 0
I1710(4) 0
I1711(4) 0
I1712(4) 0
I1713(4) 0
I1714(4) 0
I1715(4) 0
I1716(4) 0
I1717(4) 0
I1718(4) 0
I1719(4) 0
I1720(4) 0
I1721(4) 0
I1722(4) 0
I1723(4) 0
I1724(4) 0
I1725(4) 0
I1726(4) 0
I1727(4) 0
I1728(4) 0
I1729(4) 0
I1730(4) 0
I1731(4) 0
I1732(4) 0
I1733(4) 0
I1734(4) 0
I1735(4) 0
I1736(4) 0
I1737(4) 0
I1738(4) 0
I1739(4) 0
I1740(4) 1
I1741(4) 1
I1742(4) 0
I1743(4) 0
I1744(4) 0
I1745(4) 1
I1746(4) 0
I1747(4) 0
I1748(4) 0
I1749(4) 0
I1750(4) 0
I1751(4) 0
I1752(4) 0
I1753(4) 0
I1754(4) 0
I1755(4) 0
I1756(4) 0
I1757(4) 0
I1758(4) 0
I1759(4) 0
I1760(4) 1
I1761(4) 0
I1762(4) 0
I1763(0) 0
I1764(4) 0
I1765(4) 0
I1766(4) 0
I1767(4) 0
I1768(0) 0
I1769(4) 0
I1770(4) 0
I1771(4) 0
I1772(4) 0
I1773(4) 0
I1774(4) 0
I1775(4) 0
I1776(4) 0
I1777(4) 0
I1778(4) 0
I1779(4) 0
I1780(4) 0
I1781(4) 0
I1782(4) 0
I1783(4) 0
I1784(4) 0
I1785(4) 0
I1786(4) 0
I1787(4) 0
I1788(4) 0
I1789(4) 0
I1790(4) 0
I1791(4) 0
I1792(4) 0
I1793(4) 0
I1794(4) 0
I1795(4) 0
I1796(4) 0
I1797(4) 0
I1798(4) 0
I1799(4) 0
I1800(4) 0
I1801(4) 0
I1802(4) 0
I1803(4) 0
I1804(4) 0
I1805(4) 0
I1806(4) 0
I1807(4) 0
I1808(4) 0
I1809(4) 268817
I1810(4) 0
I1811(4) 0
I1812(4) 0
I1813(4) 0
I1814(4) 0
I1815(4) 0
I1816(4) 0
I1817(4) 0
I1818(4) 0
I1819(4) 0
I1820(4) 0
I1821(4) 0
I1822(4) 0
I1823(4) 0
I1824(4) 268817
I1825(4) 0
I1826(0) 0
I1827(4) 0
I1828(4) 0
I1829(4) 0
I1830(4) 0
I1831(0) 0
I1832(4) 0
I1833(4) 0
I1834(4) 0
I1835(4) 0
I1836(4) 0
I1837(4) 0
I1838(4) 0
I1839(4) 0
I1840(4) 0
I1841(4) 0
I1842(4) 0
I1843(4) 0
I1844(4) 0
I1845(4) 0
I1846(4) 0
I1847(4) 0
I1848(4) 0
I1849(4) 0
I1850(4) 0
I1851(4) 0
I1852(4) 0
I1853(4) 0
I1854(4) 0
I1855(4) 0
I1856(4) 0
I1857(4) 0
I1858(4) 0
I1859(4) 0
I1860(4) 0
I1861(4) 0
I1862(4) 0
I1863(4) 0
I1864(4) 0
I1865(4) 0
I1866(4) 0
I1867(4) 0
I1868(4) 0
I1869(4) 0
I1870(4) 0
I1871(4) 0
I1872(4) 0
I1873(4) 2663
I1874(4) 0
I1875(4) 0
I1876(4) 0
I1877(4) 0
I1878(4) 0
I1879(4) 0
I1880(4) 0
I1881(4) 0
I1882(4) 0
I1883(4) 0
I1884(4) 0
I1885(4) 0
I1886(4) 0
I1887(4) 0
I1888(4) 2663
I1889(0) 0
I1890(122) 200
I1891(122) 124
I1892(122) 581
I1893(122) 765
I1894(122) 7657
I1895(122) 1
I1896(122) 1
I1897(122) 1
I1898(122) 1840
I1899(122) 1
I1900(122) 1
I1901(122) 823
I1902(122) 1
I1903(122) 268817
I1904(122) 2663
